
n_res = 4;
rcap = [30, 31, 517, 488];
rtype = [1, 1, 2, 2];
n_tasks = 50;
modes =  [{1, 2, 3, 4, 5, 6}, {7, 8, 9, 10, 11, 12}, {13, 14, 15, 16, 17, 18}, {19, 20, 21, 22, 23, 24}, {25, 26, 27, 28, 29, 30}, {31, 32, 33, 34, 35, 36}, {37, 38, 39, 40, 41, 42}, {43, 44, 45, 46, 47, 48}, {49, 50, 51, 52, 53, 54}, {55, 56, 57, 58, 59, 60}, {61, 62, 63, 64, 65, 66}, {67, 68, 69, 70, 71, 72}, {73, 74, 75, 76, 77, 78}, {79, 80, 81, 82, 83, 84}, {85, 86, 87, 88, 89, 90}, {91, 92, 93, 94, 95, 96}, {97, 98, 99, 100, 101, 102}, {103, 104, 105, 106, 107, 108}, {109, 110, 111, 112, 113, 114}, {115, 116, 117, 118, 119, 120}, {121, 122, 123, 124, 125, 126}, {127, 128, 129, 130, 131, 132}, {133, 134, 135, 136, 137, 138}, {139, 140, 141, 142, 143, 144}, {145, 146, 147, 148, 149, 150}, {151, 152, 153, 154, 155, 156}, {157, 158, 159, 160, 161, 162}, {163, 164, 165, 166, 167, 168}, {169, 170, 171, 172, 173, 174}, {175, 176, 177, 178, 179, 180}, {181, 182, 183, 184, 185, 186}, {187, 188, 189, 190, 191, 192}, {193, 194, 195, 196, 197, 198}, {199, 200, 201, 202, 203, 204}, {205, 206, 207, 208, 209, 210}, {211, 212, 213, 214, 215, 216}, {217, 218, 219, 220, 221, 222}, {223, 224, 225, 226, 227, 228}, {229, 230, 231, 232, 233, 234}, {235, 236, 237, 238, 239, 240}, {241, 242, 243, 244, 245, 246}, {247, 248, 249, 250, 251, 252}, {253, 254, 255, 256, 257, 258}, {259, 260, 261, 262, 263, 264}, {265, 266, 267, 268, 269, 270}, {271, 272, 273, 274, 275, 276}, {277, 278, 279, 280, 281, 282}, {283, 284, 285, 286, 287, 288}, {289, 290, 291, 292, 293, 294}, {295, 296, 297, 298, 299, 300}];
succ =  [{50, 48, 35, 34, 33, 26, 19, 16, 15, 9}, {47, 41, 35, 31, 30, 29, 28, 27, 19, 14}, {50, 49, 28, 25, 24, 20, 11}, {49, 48, 47, 45, 41, 33, 32, 31, 26, 19}, {48, 33, 32, 31, 28, 27, 22, 19}, {48, 45, 43, 41, 40, 34, 33, 32, 30, 27, 19}, {50, 46, 45, 44, 43, 41, 32, 30, 27, 25, 16}, {48, 47, 46, 44, 43, 38, 31, 24, 22}, {49, 46, 44, 43, 42, 32, 31, 27, 25, 22}, {49, 44, 42, 41, 31, 30, 27, 25}, {45, 44, 43, 41, 40, 38, 36, 31, 30}, {47, 43, 42, 41, 34, 30, 27}, {48, 47, 41, 40, 38, 30, 27}, {45, 43, 39, 37, 33, 32}, {47, 45, 44, 41, 39, 38, 36}, {49, 42, 39, 38, 37, 36}, {43, 42, 39, 38, 37, 36}, {50, 47, 42, 41, 38, 36}, {46, 44, 42, 38, 37}, {46, 41, 40, 39, 37}, {48, 41, 40, 38, 37}, {45, 40, 36, 30}, {40, 37, 36, 33}, {42, 41, 27}, {40, 38, 37, 36}, {43, 40, 38, 36}, {37, 36}, {43, 36}, {46, 39}, {37}, {39}, {36}, {38}, {39}, {39}, {}, {}, {}, {}, {}, {}, {}, {}, {}, {}, {}, {}, {}, {}, {}];
n_opt = 300;
dur = [8, 9, 12, 14, 17, 20, 13, 15, 16, 17, 18, 19, 2, 9, 10, 11, 13, 18, 1, 5, 6, 10, 12, 15, 7, 9, 11, 14, 16, 20, 5, 10, 11, 13, 15, 18, 1, 4, 11, 14, 19, 20, 2, 6, 7, 18, 19, 20, 1, 6, 8, 13, 19, 20, 8, 9, 13, 14, 19, 20, 4, 7, 10, 11, 13, 17, 1, 5, 11, 15, 17, 18, 3, 7, 9, 15, 16, 19, 4, 9, 12, 16, 18, 19, 2, 6, 10, 13, 18, 20, 4, 9, 10, 14, 17, 18, 4, 6, 7, 9, 12, 20, 2, 5, 8, 11, 13, 15, 1, 4, 11, 14, 15, 17, 1, 9, 11, 12, 18, 19, 4, 11, 13, 14, 19, 20, 2, 3, 5, 18, 19, 20, 3, 5, 9, 10, 14, 17, 2, 4, 8, 9, 10, 16, 4, 7, 8, 16, 17, 19, 7, 8, 9, 10, 11, 15, 6, 9, 12, 13, 16, 19, 1, 2, 8, 10, 12, 16, 4, 7, 8, 8, 9, 20, 1, 4, 5, 11, 13, 16, 1, 2, 7, 8, 10, 11, 3, 9, 10, 11, 19, 20, 1, 5, 7, 10, 19, 20, 2, 4, 10, 18, 19, 20, 1, 2, 5, 6, 9, 14, 1, 3, 10, 13, 14, 17, 7, 10, 11, 12, 18, 20, 1, 2, 8, 10, 12, 19, 1, 3, 10, 11, 17, 20, 1, 3, 4, 6, 9, 11, 2, 7, 10, 13, 14, 18, 7, 8, 11, 14, 18, 19, 4, 6, 7, 9, 11, 16, 2, 3, 5, 6, 9, 15, 1, 4, 5, 6, 12, 20, 1, 4, 9, 10, 18, 20, 3, 15, 16, 17, 18, 19, 3, 4, 7, 11, 16, 17, 2, 5, 11, 13, 17, 18, 3, 4, 5, 11, 16, 17];
rreq = [|4, 4, 4, 4, 3, 3, 4, 4, 4, 4, 4, 4, 5, 3, 3, 3, 2, 1, 3, 3, 2, 2, 2, 1, 5, 4, 3, 3, 3, 2, 4, 3, 2, 2, 1, 1, 4, 3, 3, 3, 3, 3, 5, 4, 3, 3, 1, 1, 2, 2, 2, 2, 2, 2, 3, 3, 3, 3, 3, 3, 2, 2, 2, 2, 2, 2, 4, 4, 3, 3, 2, 2, 3, 3, 3, 3, 3, 3, 1, 1, 1, 1, 1, 1, 4, 4, 3, 3, 2, 1, 2, 2, 2, 2, 2, 2, 4, 4, 3, 3, 2, 1, 4, 3, 3, 2, 1, 1, 4, 3, 3, 2, 2, 1, 5, 5, 5, 5, 5, 5, 2, 2, 2, 2, 2, 2, 3, 2, 2, 2, 2, 2, 1, 1, 1, 1, 1, 1, 5, 5, 5, 5, 5, 5, 3, 3, 2, 2, 1, 1, 3, 3, 3, 3, 2, 2, 1, 1, 1, 1, 1, 1, 3, 3, 3, 3, 3, 3, 5, 4, 4, 3, 3, 3, 4, 4, 3, 3, 2, 2, 4, 4, 4, 4, 4, 4, 5, 4, 4, 4, 4, 4, 4, 4, 4, 3, 3, 3, 2, 1, 1, 1, 1, 1, 4, 4, 4, 3, 3, 3, 4, 4, 4, 4, 4, 4, 3, 3, 3, 3, 3, 3, 1, 1, 1, 1, 1, 1, 4, 4, 4, 3, 3, 3, 5, 4, 3, 3, 1, 1, 5, 4, 4, 4, 4, 4, 3, 3, 3, 2, 1, 1, 5, 4, 4, 4, 4, 4, 5, 4, 3, 2, 2, 1, 5, 5, 5, 5, 5, 5, 3, 3, 3, 3, 3, 3, 4, 3, 3, 3, 2, 1, 5, 4, 4, 4, 3, 3, 4, 4, 4, 3, 3, 3, 2, 2, 2, 1, 1, 1
 |4, 4, 4, 3, 3, 3, 4, 4, 4, 4, 4, 4, 4, 4, 4, 4, 3, 3, 4, 4, 4, 4, 4, 4, 4, 4, 4, 4, 4, 4, 4, 4, 4, 4, 4, 4, 5, 4, 3, 3, 2, 1, 5, 4, 4, 3, 3, 3, 3, 3, 3, 2, 2, 2, 3, 2, 2, 2, 2, 2, 4, 4, 3, 2, 2, 1, 4, 4, 4, 3, 3, 3, 4, 4, 4, 3, 3, 2, 3, 3, 2, 2, 2, 1, 3, 3, 3, 3, 3, 3, 2, 2, 2, 1, 1, 1, 5, 4, 3, 3, 2, 1, 2, 2, 2, 2, 2, 2, 4, 4, 4, 3, 3, 3, 4, 3, 2, 2, 1, 1, 4, 4, 4, 4, 4, 4, 4, 3, 3, 3, 1, 1, 1, 1, 1, 1, 1, 1, 5, 3, 3, 2, 2, 1, 5, 4, 4, 4, 4, 4, 4, 4, 4, 4, 4, 4, 4, 3, 2, 2, 2, 1, 2, 2, 2, 2, 2, 2, 4, 3, 3, 3, 3, 3, 4, 4, 4, 4, 4, 4, 2, 2, 2, 2, 2, 2, 4, 4, 4, 4, 4, 4, 5, 3, 3, 3, 2, 1, 5, 4, 3, 3, 1, 1, 2, 1, 1, 1, 1, 1, 5, 4, 3, 3, 3, 2, 3, 2, 2, 2, 1, 1, 4, 4, 4, 3, 3, 2, 3, 3, 3, 3, 2, 2, 2, 2, 2, 2, 2, 2, 3, 3, 3, 3, 3, 3, 4, 4, 4, 4, 4, 4, 4, 4, 4, 3, 2, 2, 4, 4, 4, 4, 4, 4, 5, 5, 5, 5, 5, 5, 4, 3, 3, 3, 3, 3, 4, 4, 4, 3, 3, 3, 2, 2, 2, 2, 2, 2, 4, 4, 4, 4, 4, 4, 2, 1, 1, 1, 1, 1
 |6, 5, 5, 4, 4, 3, 8, 7, 6, 5, 5, 4, 16, 15, 13, 11, 9, 5, 8, 8, 7, 5, 4, 4, 16, 15, 12, 8, 7, 5, 18, 18, 18, 18, 18, 18, 12, 12, 8, 6, 4, 3, 9, 7, 7, 6, 3, 3, 9, 8, 6, 5, 4, 2, 9, 9, 9, 8, 8, 8, 11, 11, 11, 11, 11, 11, 13, 12, 12, 12, 10, 10, 14, 12, 11, 10, 5, 5, 15, 13, 13, 10, 8, 6, 11, 11, 9, 6, 4, 3, 9, 9, 8, 7, 7, 6, 12, 12, 12, 12, 12, 12, 17, 15, 14, 13, 9, 8, 20, 18, 16, 15, 14, 14, 15, 13, 13, 11, 10, 8, 8, 8, 8, 8, 8, 8, 19, 15, 15, 11, 11, 8, 18, 16, 16, 15, 12, 11, 9, 9, 9, 8, 8, 8, 18, 16, 14, 11, 9, 7, 14, 14, 11, 10, 6, 4, 7, 6, 5, 3, 3, 2, 10, 9, 9, 9, 8, 8, 16, 16, 16, 16, 16, 16, 20, 17, 15, 15, 12, 11, 13, 10, 10, 6, 4, 3, 18, 18, 18, 18, 18, 18, 10, 9, 7, 7, 4, 4, 17, 14, 12, 8, 7, 2, 3, 3, 3, 3, 2, 2, 17, 13, 12, 8, 7, 4, 2, 2, 2, 2, 2, 2, 18, 18, 18, 17, 16, 16, 11, 9, 9, 8, 8, 7, 15, 14, 13, 12, 11, 11, 15, 13, 11, 8, 6, 3, 12, 10, 9, 9, 8, 7, 18, 14, 14, 12, 8, 7, 16, 15, 15, 15, 14, 14, 16, 14, 12, 11, 10, 9, 10, 9, 8, 5, 4, 3, 11, 9, 9, 6, 5, 5, 16, 14, 12, 12, 10, 8, 19, 18, 18, 18, 18, 18, 17, 16, 14, 12, 12, 9
 |12, 11, 10, 10, 9, 9, 20, 15, 15, 11, 9, 8, 5, 5, 5, 5, 5, 5, 10, 9, 8, 7, 6, 6, 15, 12, 12, 9, 6, 6, 14, 14, 14, 13, 13, 12, 14, 13, 11, 7, 5, 3, 13, 11, 10, 7, 6, 2, 7, 7, 7, 7, 7, 7, 18, 16, 15, 15, 14, 13, 13, 11, 10, 10, 9, 8, 7, 6, 5, 5, 4, 3, 15, 13, 13, 12, 10, 10, 16, 16, 12, 12, 9, 8, 2, 1, 2, 2, 2, 2, 17, 15, 14, 14, 12, 11, 18, 13, 12, 7, 4, 3, 11, 11, 7, 6, 5, 1, 15, 15, 14, 12, 11, 11, 11, 9, 7, 7, 4, 3, 7, 6, 5, 4, 3, 2, 16, 14, 13, 13, 13, 12, 10, 10, 8, 7, 6, 3, 16, 16, 15, 15, 14, 13, 16, 15, 13, 10, 5, 5, 10, 8, 8, 7, 5, 5, 2, 2, 2, 2, 1, 2, 16, 15, 13, 12, 11, 10, 6, 6, 5, 7, 6, 5, 2, 2, 2, 1, 2, 2, 14, 13, 12, 11, 10, 9, 19, 19, 18, 17, 16, 15, 18, 18, 18, 18, 18, 18, 17, 14, 10, 9, 4, 1, 14, 11, 10, 6, 4, 1, 10, 10, 10, 10, 10, 10, 10, 10, 8, 6, 5, 4, 9, 8, 7, 9, 8, 8, 13, 13, 12, 12, 11, 11, 19, 18, 17, 14, 12, 11, 4, 4, 3, 3, 2, 2, 19, 14, 12, 12, 9, 6, 13, 11, 9, 9, 5, 5, 12, 12, 10, 10, 8, 8, 16, 15, 12, 11, 10, 7, 2, 2, 2, 2, 2, 2, 16, 16, 14, 14, 13, 12, 13, 13, 13, 12, 13, 13, 13, 11, 10, 8, 4, 3, 13, 13, 13, 13, 12, 12|];